c description: Random 7-CNF over 15 variables and 15 clauses
c generator: CNFgen (0.9.0)
c copyright: (C) 2012-2020 Massimo Lauria <massimo.lauria@uniroma1.it>
c url: https://massimolauria.net/cnfgen
c
p cnf 15 15
2 4 -6 10 -11 -12 -13 0
3 4 6 7 -9 -11 12 0
-1 2 7 9 10 11 13 0
1 -5 7 -12 -13 14 15 0
1 -4 7 8 9 11 -15 0
-3 5 6 -8 9 -10 -14 0
1 -2 -7 9 10 12 -15 0
1 2 4 -6 -11 -12 14 0
-5 8 -9 10 -12 -14 15 0
1 3 -4 -8 13 -14 15 0
-2 -6 -10 12 13 -14 15 0
1 3 4 -5 7 -8 -12 0
-1 6 -8 11 -12 -13 -14 0
-3 -5 6 -7 9 -11 -13 0
-1 -2 4 10 11 -12 14 0